c ---- [ banner ] ------------------------------------------------------------
c
c Kissat SAT Solver
c 
c Copyright (c) 2021-2023 Armin Biere University of Freiburg
c Copyright (c) 2019-2021 Armin Biere Johannes Kepler University Linz
c 
c Version 3.1.1 unknown
c gcc (Ubuntu 9.4.0-1ubuntu1~20.04.2) 9.4.0 -W -Wall -O3 -DNDEBUG
c Mon Feb 26 18:18:52 CET 2024 Linux OptiPlex-7080 5.15.0-88-generic x86_64
c
c ---- [ parsing ] -----------------------------------------------------------
c
c opened and reading DIMACS file:
c
c   /home/oliveras/SAT-comp-2023//15a2ec07aaca45d454a2fbfc0624e75e-hash_table_find_safety_size_29.cnf
c
c parsed 'p cnf 20094661 91465575' header
c closing input after reading 2383012853 bytes (2 GB)
c finished parsing after 22.32 seconds
c
c ---- [ options ] -----------------------------------------------------------
c
c --seed=1                         (different from default '0')
c
c ---- [ solving ] -----------------------------------------------------------
c
c  seconds   switched conflicts        irredundant    variables
c           MB reductions redundant             trail        remaining
c            level restarts       binary           glue
c
c * 22.32 5984 0 0 0  0   0   0 11676063 69374856 0% 0 18338787 91%
c { 22.32 5985 0 0 0  0   0   0 11676063 69374856 0% 0 18338787 91%
c - 23.66 5987 1369 0 1  0 1375  29 11003514 69374856 1% 634 18338787 91%
c } 23.66 5987 1369 1 1  0 1375  29 11003514 69374856 1% 634 18338787 91%
c [ 23.66 5987 0 1 1  0 1375  29 11003514 69374856 0% 0 18338787 91%
c B 24.47 6058 0 1 1  0 1375  29 11003514 69374856 0% 0 18338787 91%
c ] 25.00 6060 14 2 1  0 1376  30 11003514 69374856 0% 3 18338787 91%
c { 25.00 6060 1369 2 1  0 1376  30 11003514 69374856 1% 634 18338787 91%
c i 34.35 6127 1347 2 1  0 1536 171 11003529 69374856 2% 181 18338785 91%
c i 39.19 6127 1343 2 1  3 1552 182 11003533 69374856 2% 185 18338784 91%
c i 80.01 6127 1182 2 1  3 1800 380 11003546 69374856 6% 103 18338783 91%
c i 80.32 6127 1180 2 1  3 1804 382 11003547 69374856 6% 102 18338782 91%
c i 82.73 6127 1175 2 1  3 1813 387 11003548 69374856 7% 101 18338781 91%
c - 159.70 6129 938 2 2  3 2376 662 11003620 69374856 14% 56 18338781 91%
c } 159.70 6129 938 3 2  3 2376 662 11003620 69374856 14% 56 18338781 91%
c [ 159.70 6129 14 3 2  3 2376 662 11003620 69374856 0% 3 18338781 91%
c W 178.95 6241 14 3 2  3 2376 662 11003620 69226522 0% 3 18338781 91%
c i 204.99 6243 1605 3 2  3 2479 758 11003623 69226520 24% 110 18338780 91%
c i 225.12 6243 1407 3 2  3 2544 818 11003625 69226520 26% 194 18338779 91%
c i 259.68 6245 1284 3 2  3 2644 912 11003630 69226520 28% 227 18338778 91%
c
c  seconds       switched conflicts         irredundant       variables
c            MB   reductions  redundant               trail          remaining
c              level  restarts         binary             glue
c
c i 276.10 6249 1246 3 2  3 2690 954 11003633 69226520 28% 225 18338777 91%
c i 294.95 6249 1207 3 2  3 2748 1009 11003635 69226520 27% 237 18338776 91%
c i 306.32 6249 1183 3 2  3 2788 1043 11003638 69226520 26% 247 18338775 91%
c i 318.27 6249 1164 3 2  3 2820 1071 11003641 69226520 25% 248 18338774 91%
c ] 324.73 6249 1159 4 2  3 2829 1080 11003641 69226520 25% 256 18338774 91%
c { 324.73 6249 938 4 2  3 2829 1080 11003641 69226520 14% 56 18338774 91%
c i 329.39 6251 844 4 2  3 3610 1846 11003647 69226520 11% 34 18338773 91%
c - 335.53 6263 1196 4 3  3 4261 1641 11003686 69226520 9% 34 18338773 91%
c i 340.28 6269 1247 4 3  4 4311 1669 11003687 69226520 9% 33 18338645 91%
c i 342.45 6271 1261 4 3  4 4340 1693 11003690 69226520 9% 33 18338644 91%
c i 342.45 6271 1261 4 3  4 4341 1693 11003690 69226520 9% 33 18338643 91%
c i 350.10 6273 1305 4 3 12 4447 1789 11003698 69226520 9% 34 18338642 91%
c i 352.27 6273 1305 4 3 13 4448 1789 11003698 69226520 9% 34 18338641 91%
c i 354.27 6273 1304 4 3 14 4450 1790 11003698 69226520 9% 34 18338640 91%
c i 368.77 6273 1302 4 3 25 4463 1800 11003700 69226520 9% 34 18338639 91%
c i 370.72 6273 1287 4 3 28 4510 1802 11003744 69226520 9% 33 18338615 91%
c } 398.44 6277 1175 5 3 42 5181 2101 11003757 69226520 13% 31 18338615 91%
c [ 398.44 6277 1159 5 3 42 5181 2101 11003757 69226520 25% 256 18338615 91%
c I 398.77 6277 1159 5 3 42 5181 2101 11003757 69226520 25% 256 18338615 91%
c i 398.83 6277 1156 5 3 42 5182 2101 11003757 69226520 25% 256 18272693 91%
c
c  seconds      switched conflicts          irredundant       variables
c            MB  reductions  redundant                trail          remaining
c              level restarts          binary             glue
c
c - 427.80 6291 626 5 4 42 5996 1570 10842912 69226520 38% 145 18272693 91%
c d 473.85 6303 578 5 4 42 6256 1705 11744609 67180692 40% 123 18123236 90%
c b 478.35 6543 578 5 4 42 6256 1705 11744609 67180692 40% 123 18045221 90%
c u 495.26 6563 578 5 4 42 6256 1701 11744613 67180692 40% 123 18045221 90%
c v 513.79 6575 578 5 4 42 6256 1700 11744614 67180692 40% 123 18045221 90%
c = 580.70 7271 578 5 4 42 6256 1700 12578475 66148964 40% 123 17882526 89%
c d 585.90 7300 578 5 4 42 6256 1405 10963447 66143863 40% 123 17296902 86%
c t 592.34 8120 578 5 4 42 6256 1405 10961238 66143863 40% 123 17296884 86%
c b 593.75 8120 578 5 4 42 6256 1405 10961238 66143863 40% 123 17295320 86%
c ] 597.29 8120 578 6 4 42 6256 1405 10961238 66143863 40% 123 17295320 86%
c { 597.29 8120 1175 6 4 42 6256 1405 10961238 66143863 13% 31 17295320 86%
c i 602.32 8128 1236 6 4 44 6412 1475 10961258 66143863 15% 31 17295319 86%
c i 610.91 8128 1230 6 4 44 6437 1497 10961260 66143863 15% 31 17295318 86%
c i 610.92 8128 1230 6 4 44 6438 1497 10961260 66143863 15% 31 17295317 86%
c i 610.92 8128 1229 6 4 44 6439 1497 10961260 66143863 15% 31 17295316 86%
c i 610.93 8128 1229 6 4 44 6440 1497 10961260 66143863 15% 31 17295315 86%
c i 610.94 8128 1229 6 4 44 6441 1497 10961260 66143863 15% 31 17295314 86%
c i 618.24 8136 1226 6 4 44 6468 1516 10961264 66143861 15% 31 17295313 86%
c i 618.31 8136 1225 6 4 44 6469 1516 10961264 66143861 15% 31 17295312 86%
c i 618.37 8136 1225 6 4 44 6470 1516 10961264 66143861 15% 31 17295311 86%
c
c  seconds       switched conflicts          irredundant      variables
c            MB   reductions  redundant                trail         remaining
c              level  restarts          binary             glue
c
c i 618.41 8138 1225 6 4 44 6471 1516 10961264 66143861 15% 31 17295310 86%
c i 618.49 8138 1225 6 4 44 6472 1516 10961264 66143861 15% 31 17295309 86%
c i 618.58 8140 1225 6 4 44 6474 1516 10961264 66143861 15% 31 17295307 86%
c i 622.17 8142 1224 6 4 44 6486 1526 10961265 66143861 15% 31 17295306 86%
c i 622.18 8142 1223 6 4 44 6487 1526 10961265 66143861 15% 31 17295305 86%
c i 622.18 8142 1223 6 4 44 6488 1526 10961265 66143861 15% 30 17295304 86%
c i 622.18 8142 1223 6 4 44 6489 1526 10961265 66143861 15% 30 17295303 86%
c i 622.19 8142 1223 6 4 44 6490 1526 10961265 66143861 15% 30 17295302 86%
c i 622.19 8142 1223 6 4 44 6491 1526 10961265 66143861 15% 30 17295301 86%
c i 622.19 8142 1223 6 4 44 6492 1526 10961265 66143861 15% 30 17295300 86%
c i 622.20 8142 1223 6 4 44 6493 1526 10961265 66143861 15% 30 17295299 86%
c i 622.20 8142 1223 6 4 44 6494 1526 10961265 66143861 15% 30 17295298 86%
c i 622.20 8142 1223 6 4 44 6495 1526 10961265 66143861 15% 30 17295297 86%
c i 622.21 8142 1223 6 4 44 6496 1526 10961265 66143861 15% 30 17295296 86%
c i 622.22 8142 1223 6 4 44 6497 1526 10961265 66143861 15% 30 17295295 86%
c i 622.23 8142 1223 6 4 44 6498 1526 10961265 66143861 15% 30 17295294 86%
c i 622.24 8142 1223 6 4 44 6499 1526 10961265 66143861 15% 30 17295292 86%
c i 661.23 8144 1205 6 4 44 6669 1674 10961272 66143861 16% 29 17295207 86%
c i 668.14 8146 1196 6 4 44 6702 1706 10961272 66143861 16% 29 17293633 86%
c i 669.51 8146 1195 6 4 44 6706 1706 10961275 66143861 16% 29 17293632 86%
c
c  seconds       switched conflicts          irredundant      variables
c            MB   reductions  redundant                trail         remaining
c              level  restarts          binary             glue
c
c - 771.24 7949 1031 6 5 44 7998 1661 10701302 66022542 23% 24 17293632 86%
c i 780.52 7951 982 6 5 45 8500 1821 10701412 66022541 25% 23 17293630 86%
c i 780.52 7951 982 6 5 45 8502 1821 10701413 66022540 25% 23 17293626 86%
c i 780.57 7951 983 6 5 45 8504 1821 10701414 66022540 25% 23 17293625 86%
c i 781.45 7953 990 6 5 45 8512 1821 10701417 66022539 25% 23 17293624 86%
c i 781.46 7953 991 6 5 45 8514 1821 10701418 66022538 25% 23 17293623 86%
c i 781.86 7953 1010 6 5 45 8529 1828 10701422 66022536 25% 23 17293620 86%
c i 783.78 7953 1015 6 5 45 8553 1837 10701428 66022536 24% 22 17293615 86%
c i 786.74 7953 1015 6 5 45 8560 1841 10701430 66022536 24% 22 17293614 86%
c i 786.74 7953 1015 6 5 45 8561 1841 10701430 66022536 24% 22 17293613 86%
c i 787.00 7953 1014 6 5 45 8564 1842 10701431 66022536 24% 22 17293612 86%
c i 789.93 7953 1014 6 5 45 8568 1844 10701432 66022536 24% 22 17293611 86%
c i 790.39 7953 1011 6 5 45 8593 1862 10701437 66022536 24% 22 17293610 86%
c i 790.48 7953 1010 6 5 45 8597 1863 10701439 66022536 24% 22 17293609 86%
c i 863.53 7957 921 6 5 46 9739 2456 10701580 66022536 28% 20 17293520 86%
c i 863.99 7957 924 6 5 46 9743 2458 10701580 66022536 28% 20 17280502 86%
c i 863.99 7957 924 6 5 46 9745 2458 10701581 66022535 28% 20 17280451 86%
c i 864.00 7957 924 6 5 46 9746 2458 10701581 66022535 28% 20 17246176 86%
c i 865.41 7957 923 6 5 46 9752 2458 10701584 66022535 28% 20 17245366 86%
c i 870.08 7984 923 6 5 46 9759 2463 10701585 66022535 28% 19 10629396 53%
c
c  seconds      switched conflicts          irredundant      variables
c            MB  reductions  redundant                trail         remaining
c              level restarts          binary             glue
c
c i 876.56 7984 914 6 5 47 9852 2551 10701587 66022535 27% 19 10484891 52%
c - 889.40 6274 892 6 6 47 10234 1729 12721489 32354565 27% 19 10484891 52%
c } 892.84 3307 886 7 6 47 10325 1761 12721489 32354565 27% 19 10484891 52%
c [ 892.84 3307 578 7 6 47 10325 1761 12721489 32354565 40% 123 10484891 52%
c B 892.89 3307 578 7 6 47 10325 1761 12721489 32354565 40% 123 10484891 52%
c d 914.03 3315 398 7 6 47 12476 2195 9610990 31875248 26% 65 8809722 44%
c b 916.78 3331 398 7 6 47 12476 2195 9610990 31875248 26% 65 8627626 43%
c u 923.71 3331 398 7 6 47 12476 2121 9611020 31875248 26% 65 8627354 43%
c v 937.09 3331 398 7 6 47 12476 2077 9611061 31875248 26% 65 8627349 43%
c w 964.69 3552 398 7 6 47 12476 2151 9773698 31330290 26% 65 8627194 43%
c = 982.42 3558 398 7 6 47 12476 2151 9775296 31300654 26% 65 8626395 43%
c d 984.99 3558 398 7 6 47 12476 2149 9640649 31271085 26% 65 8545887 43%
c t 988.70 3560 398 7 6 47 12476 2149 9640091 31271085 26% 65 8545818 43%
c b 989.78 3560 398 7 6 47 12476 2149 9640091 31271085 26% 65 8544944 43%
c i 989.78 3560 398 7 6 47 12476 2149 9640091 31271085 26% 65 8544944 43%
c - 1000.90 3372 380 7 7 48 12683 2098 9211857 31216865 25% 61 8544944 43%
c i 1050.26 3390 301 7 7 49 15218 3350 9212120 31216862 19% 40 8544943 43%
c - 1051.64 3390 297 7 8 49 15328 2743 9212131 31216862 18% 40 8544943 43%
c i 1054.66 3390 290 7 8 49 15503 2848 9212140 31216862 18% 39 8544942 43%
c W 1077.03 3393 275 7 8 49 15856 3186 9212140 31216859 17% 36 8544942 43%
c
c   seconds      switched conflicts          irredundant      variables
c             MB  reductions   redundant               trail        remaining
c               level restarts          binary             glue
c
c i 1080.38 3393 272 7 8 49 15914 3240 9212140 31216859 17% 36 8544941 43%
c i 1080.99 3393 270 7 8 49 15950 3275 9212140 31216859 17% 36 8544940 43%
c i 1112.98 3393 243 7 8 49 16620 3932 9212140 31216859 16% 32 8544939 43%
c ] 1130.68 3393 235 7 8 50 16848 4134 9212151 31216859 15% 31 8542770 43%
c 0 1130.68 3393 886 7 8 50 16848 4134 9212151 31216859 27% 19 8542770 43%
c
c ---- [ result ] ------------------------------------------------------------
c
s UNSATISFIABLE
c
c ---- [ profiling ] ---------------------------------------------------------
c
c         886.13   78.37 %  search
c         505.29   44.69 %  focused
c         380.83   33.68 %  stable
c         222.23   19.65 %  simplify
c         204.26   18.07 %  probe
c         121.96   10.79 %  vivify
c          46.03    4.07 %  sweep
c          30.48    2.70 %  reduce
c          23.45    2.07 %  substitute
c          22.32    1.97 %  parse
c          17.98    1.59 %  walking
c           9.21    0.81 %  warmup
c           6.72    0.59 %  transitive
c           6.10    0.54 %  backbone
c =============================================
c        1130.68  100.00 %  total
c
c ---- [ statistics ] --------------------------------------------------------
c
c chronological:                         3958               23 %  conflicts
c conflicts:                            16848               14.90 per second
c decisions:                           363791               21.59 per conflict
c jumped_reasons:                    96921172                2 %  propagations
c propagations:                    4044539911          3577084    per second
c queue_decisions:                     130354               36 %  decision
c random_decisions:                     57461               16 %  decision
c random_sequences:                         7             2407    interval
c reductions:                               8             2106    interval
c rephased:                                 5             3370    interval
c restarts:                                50              336.96 interval
c score_decisions:                     175976               48 %  decision
c substituted:                        2653085               13 %  variables
c switched:                                 7             2407    interval
c vivified:                               698                1 %  checks
c vivify_checks:                        91880            45940    per vivify
c vivify_units:                            65                0 %  variables
c walk_improved:                            2              100 %  walks
c walks:                                    2             8424    interval
c
c ---- [ resources ] ---------------------------------------------------------
c
c maximum-resident-set-size:       8850522112 bytes       8441 MB
c process-time:                        18m 51s            1130.68 seconds
c
c ---- [ shutting down ] -----------------------------------------------------
c
c exit 20
